; tzinor/polyglot/arkhen.smt2
; Z3/SMT-LIB — Verificação de Satisfatibilidade, Otimização

; ═══════════════════════════════════════════════════════════════════
; DECLARAÇÕES DE TIPOS
; ═══════════════════════════════════════════════════════════════════

(declare-datatypes () ((Scale
  Quantum Atomic Biological Neural Planetary Stellar Galactic Cosmic)))

(declare-const s Scale)

; ═══════════════════════════════════════════════════════════════════
; COERÊNCIA COMO REALS
; ═══════════════════════════════════════════════════════════════════

(declare-const amplitude Real)  ; |Ω|
(declare-const phase Real)      ; θ

; Restrições de domínio
(assert (>= amplitude 0.0))
(assert (<= phase (* 2.0 3.14159265359)))

; ═══════════════════════════════════════════════════════════════════
; CONDIÇÃO DE RESSONÂNCIA
; ═══════════════════════════════════════════════════════════════════

(define-fun is_resonant () Bool
  (< (abs (- phase (/ 3.14159265359 2.0))) 0.1))

; ═══════════════════════════════════════════════════════════════════
; SUBSTRATO MITOCONDRIAL
; ═══════════════════════════════════════════════════════════════════

(declare-const deltaPsi Real)
(declare-const atp Real)
(declare-const ros Real)
(declare-const cristae Real)
(declare-const mtDNA Real)

; Restrições físicas
(assert (< deltaPsi 0))  ; Potencial negativo
(assert (> atp 0))
(assert (>= ros 0))
(assert (> cristae 0))
(assert (and (>= mtDNA 0.0) (<= mtDNA 1.0)))

; Cálculo de coerência
(assert (= amplitude
  (ite (> (/ (* (/ atp (+ ros 0.000001)) mtDNA 1.0) 3.0) 2.0)
       2.0
       (ite (< (/ (* (/ atp (+ ros 0.000001)) mtDNA 1.0) 3.0) 0.0)
            0.0
            (/ (* (/ atp (+ ros 0.000001)) mtDNA 1.0) 3.0)))))

(assert (= phase (* (/ 3.14159265359 2.0) (- 1.0 0.5)))) ; Simplified exp

; ═══════════════════════════════════════════════════════════════════
; PROBLEMA DE OTIMIZAÇÃO: Encontrar parâmetros para ressonância
; ═══════════════════════════════════════════════════════════════════

(push)
(assert is_resonant)
(assert (> amplitude 0.95))

(check-sat)
(get-model)
(pop)

; ═══════════════════════════════════════════════════════════════════
; VERIFICAÇÃO DE PROVA ZK
; ═══════════════════════════════════════════════════════════════════

(declare-const proof_hash (_ BitVec 256))
(declare-const expected_hash (_ BitVec 256))

(define-fun valid_proof () Bool (= proof_hash expected_hash))

; Verificar se existe configuração válida
(push)
(assert (and is_resonant valid_proof))
(check-sat)
(pop)
